NAME : single
TYPE : ATSP
<<<<<<< Updated upstream
DIMENSION : 6
EDGE_WEIGHT_TYPE : EXPLICIT
EDGE_WEIGHT_FORMAT : FULL_MATRIX
EDGE_WEIGHT_SECTION
0 374 348 266 391 466 
0 0 226 263 176 206 
0 226 0 92 52 169 
0 263 92 0 86 158 
0 176 52 86 0 217 
0 206 169 158 217 0 
=======
DIMENSION : 3
EDGE_WEIGHT_TYPE : EXPLICIT
EDGE_WEIGHT_FORMAT : FULL_MATRIX
EDGE_WEIGHT_SECTION
0 1232 466 
0 0 1200 
0 1200 0 
>>>>>>> Stashed changes
EOF